32      10      
15      20      14      13      15      18      11      12      15      12      
0       0       0       0       0       0       0       0       0       0       0       1       2       
9       7       1       6       0       0       12      3       0       3       0       1       3       
4       4       6       1       0       0       0       0       1       1       1       2       4       8       
5       1       0       0       12      0       1       0       1       1       1       1       5       
6       0       8       7       2       0       0       0       6       6       1       2       6       7       
4       1       4       0       1       14      1       0       1       0       0       2       9       12      
5       0       0       1       3       5       7       6       0       3       0       1       10      
10      0       0       0       12      5       1       4       6       0       8       1       9       
4       1       0       0       1       1       0       1       3       0       1       2       11      13      
3       13      14      5       4       1       0       0       0       6       0       2       11      13      
4       0       1       0       0       0       3       2       6       7       2       3       14      15      17      
7       1       0       0       1       4       9       1       0       1       0       3       14      15      17      
5       0       0       10      4       1       4       5       6       0       0       1       14      
2       0       0       7       0       1       4       1       1       3       0       3       16      18      24      
5       0       1       0       0       5       8       0       1       1       6       2       16      24      
3       1       8       3       1       0       0       0       0       1       4       3       19      20      22      
10      1       0       1       0       0       8       4       1       0       8       3       19      20      23      
5       9       8       1       0       0       10      0       0       10      6       3       20      22      23      
10      4       1       0       0       6       0       0       6       1       1       1       21      
5       4       0       1       3       5       0       1       0       0       1       1       25      
8       0       6       1       0       3       3       1       5       0       0       1       25      
5       0       2       1       0       1       0       1       0       1       1       1       25      
5       0       1       2       1       4       5       0       1       0       0       1       25      
3       0       0       3       0       3       1       0       1       5       1       1       25      
1       1       6       0       1       0       1       3       2       0       0       2       26      27      
1       1       0       6       1       4       0       1       0       0       6       2       28      29      
4       1       1       0       5       0       0       3       0       11      1       1       28      
2       0       0       1       1       0       1       1       4       6       0       2       30      31      
9       6       3       0       1       0       0       1       2       0       1       1       30      
6       11      12      0       5       2       0       11      0       0       4       1       32      
8       1       7       6       0       3       2       0       0       1       0       1       32      
0       0       0       0       0       0       0       0       0       0       0       0       
